(assert (forall ((pkt_0_4_6_0  Int  )(state_group_0_state_0_5_7_0  Int  )(state_group_0_state_1_6_8_0  Int  )) (let ((_n0 state_group_0_state_1_6_8_0 ))
(let ((_n1 state_group_0_state_0_5_7_0 ))
(let ((_n2 true ))
(let ((_n3 (+   _n1   (ite  _n2  1 0) ) ))
(let ((_n4 (ite (=  _n0  0)  _n3   _n1  ) ))
(let ((_n5 3 ))
(let ((_n6 (=   _n0   _n5 ) ))
(let ((_n7 (not  _n6 ) ))
(let ((_n8 2 ))
(let ((_n9 false ))
(let ((_n10 (ite (=  _n0  3)  _n0   (ite  _n9  1 0)  ) ))
(let ((_n11 (=   _n10   _n8 ) ))
(let ((_n12 (not  _n11 ) ))
(let ((_n13 (and   _n6   _n12 ) ))
(let ((_n14 (and   _n13   _n6 ) ))
(let ((_n15 pkt_0_4_6_0 ))
(let ((_n16 (ite  _n14   _n15   (ite  _n9  1 0)  ) ))
(let ((_n17 (-  _n16 )))
(let ((_n18 (=   _n17   (ite  _n2  1 0) ) ))
(let ((_n19 (and   _n14   _n18 ) ))
(let ((_n20 (and   _n19   _n14 ) ))
(let ((_n21 (ite  _n20   _n15   (ite  _n9  1 0)  ) ))
(let ((_n22 (+   _n21   _n21 ) ))
(let ((_n23 (ite  _n20   _n22   (ite  _n9  1 0)  ) ))
(let ((_n24 (+   _n1   _n23 ) ))
(let ((_n25 (ite (=  (ite  _n19  1 0)  1)  _n24   _n1  ) ))
(let ((_n26 (ite (=  (ite  _n13  1 0)  1)  _n25   _n1  ) ))
(let ((_n27 (ite (=  _n0  3)  (ite  _n9  1 0)   _n0  ) ))
(let ((_n28 (<   _n27   (ite  _n2  1 0) ) ))
(let ((_n29 (ite (=  _n0  3)  _n9   _n28  ) ))
(let ((_n30 (and   _n29   _n7 ) ))
(let ((_n31 (+   _n1   (ite  _n30  1 0) ) ))
(let ((_n32 (ite (=  (ite  _n29  1 0)  1)  _n31   _n1  ) ))
(let ((_n33 (ite (=  (ite  _n7  1 0)  1)  _n32   _n26  ) ))
(let ((_n34 (=   _n33   _n4 ) ))
(let ((_n36 (ite (=  _n1  999)  (ite  _n2  1 0)   _n0  ) ))
(let ((_n37 (ite (=  _n0  0)  _n36   _n0  ) ))
(let ((_n38 (not  _n14 ) ))
(let ((_n39 (or   _n19   _n38 ) ))
(let ((_n40 (ite  _n39   (ite  _n9  1 0)   _n8  ) ))
(let ((_n41 (not  _n39 ) ))
(let ((_n42 (+   (ite  _n41  1 0)   _n40 ) ))
(let ((_n43 (ite  _n39   (ite  _n9  1 0)   _n42  ) ))
(let ((_n44 (ite  _n39   _n0   (ite  _n9  1 0)  ) ))
(let ((_n45 (+   _n44   _n43 ) ))
(let ((_n46 (+   _n0   _n23 ) ))
(let ((_n47 (ite (=  (ite  _n19  1 0)  1)  _n46   _n45  ) ))
(let ((_n48 (ite (=  (ite  _n13  1 0)  1)  _n47   _n0  ) ))
(let ((_n49 (ite (=  (ite  _n7  1 0)  1)  _n0   _n48  ) ))
(let ((_n50 (=   _n49   _n37 ) ))
(let ((_n52 (ite (=  _n15  0)  _n15   (ite  _n9  1 0)  ) ))
(let ((_n53 (ite (=  _n15  0)  _n52   _n15  ) ))
(let ((_n54 (=   _n53   _n15 ) ))
(implies  (and (and (>= state_group_0_state_1_6_8_0 0) (< state_group_0_state_1_6_8_0 1024 ))  (and (and (>= state_group_0_state_0_5_7_0 0) (< state_group_0_state_0_5_7_0 1024 ))  (and (>= pkt_0_4_6_0 0) (< pkt_0_4_6_0 1024 )) ) )   (and  _n34  _n50  _n54 )  ))))))))))))))))))))))))))))))))))))))))))))))))))))))))
(check-sat)
(get-model)
(exit)